<instance format="XCSP3" type="CSP">
  <variables>
    <array id="box" size="[23]"> 1..3 </array>
  </variables>
  <constraints>
    <group>
      <intension> or(ne(%0,%1),ne(%0,%2),ne(%1,%2)) </intension>
      <args> box[0..2] </args>
      <args> box[0] box[2..3] </args>
      <args> box[0] box[3..4] </args>
      <args> box[0] box[4..5] </args>
      <args> box[0] box[5..6] </args>
      <args> box[0] box[6..7] </args>
      <args> box[0] box[7..8] </args>
      <args> box[0] box[8..9] </args>
      <args> box[0] box[9..10] </args>
      <args> box[0] box[10..11] </args>
      <args> box[0] box[11..12] </args>
      <args> box[0] box[12..13] </args>
      <args> box[0] box[13..14] </args>
      <args> box[0] box[14..15] </args>
      <args> box[0] box[15..16] </args>
      <args> box[0] box[16..17] </args>
      <args> box[0] box[17..18] </args>
      <args> box[0] box[18..19] </args>
      <args> box[0] box[19..20] </args>
      <args> box[0] box[20..21] </args>
      <args> box[0] box[21..22] </args>
      <args> box[1..2] box[4] </args>
      <args> box[1] box[3] box[5] </args>
      <args> box[1] box[4] box[6] </args>
      <args> box[1] box[5] box[7] </args>
      <args> box[1] box[6] box[8] </args>
      <args> box[1] box[7] box[9] </args>
      <args> box[1] box[8] box[10] </args>
      <args> box[1] box[9] box[11] </args>
      <args> box[1] box[10] box[12] </args>
      <args> box[1] box[11] box[13] </args>
      <args> box[1] box[12] box[14] </args>
      <args> box[1] box[13] box[15] </args>
      <args> box[1] box[14] box[16] </args>
      <args> box[1] box[15] box[17] </args>
      <args> box[1] box[16] box[18] </args>
      <args> box[1] box[17] box[19] </args>
      <args> box[1] box[18] box[20] </args>
      <args> box[1] box[19] box[21] </args>
      <args> box[1] box[20] box[22] </args>
      <args> box[2..3] box[6] </args>
      <args> box[2] box[4] box[7] </args>
      <args> box[2] box[5] box[8] </args>
      <args> box[2] box[6] box[9] </args>
      <args> box[2] box[7] box[10] </args>
      <args> box[2] box[8] box[11] </args>
      <args> box[2] box[9] box[12] </args>
      <args> box[2] box[10] box[13] </args>
      <args> box[2] box[11] box[14] </args>
      <args> box[2] box[12] box[15] </args>
      <args> box[2] box[13] box[16] </args>
      <args> box[2] box[14] box[17] </args>
      <args> box[2] box[15] box[18] </args>
      <args> box[2] box[16] box[19] </args>
      <args> box[2] box[17] box[20] </args>
      <args> box[2] box[18] box[21] </args>
      <args> box[2] box[19] box[22] </args>
      <args> box[3..4] box[8] </args>
      <args> box[3] box[5] box[9] </args>
      <args> box[3] box[6] box[10] </args>
      <args> box[3] box[7] box[11] </args>
      <args> box[3] box[8] box[12] </args>
      <args> box[3] box[9] box[13] </args>
      <args> box[3] box[10] box[14] </args>
      <args> box[3] box[11] box[15] </args>
      <args> box[3] box[12] box[16] </args>
      <args> box[3] box[13] box[17] </args>
      <args> box[3] box[14] box[18] </args>
      <args> box[3] box[15] box[19] </args>
      <args> box[3] box[16] box[20] </args>
      <args> box[3] box[17] box[21] </args>
      <args> box[3] box[18] box[22] </args>
      <args> box[4..5] box[10] </args>
      <args> box[4] box[6] box[11] </args>
      <args> box[4] box[7] box[12] </args>
      <args> box[4] box[8] box[13] </args>
      <args> box[4] box[9] box[14] </args>
      <args> box[4] box[10] box[15] </args>
      <args> box[4] box[11] box[16] </args>
      <args> box[4] box[12] box[17] </args>
      <args> box[4] box[13] box[18] </args>
      <args> box[4] box[14] box[19] </args>
      <args> box[4] box[15] box[20] </args>
      <args> box[4] box[16] box[21] </args>
      <args> box[4] box[17] box[22] </args>
      <args> box[5..6] box[12] </args>
      <args> box[5] box[7] box[13] </args>
      <args> box[5] box[8] box[14] </args>
      <args> box[5] box[9] box[15] </args>
      <args> box[5] box[10] box[16] </args>
      <args> box[5] box[11] box[17] </args>
      <args> box[5] box[12] box[18] </args>
      <args> box[5] box[13] box[19] </args>
      <args> box[5] box[14] box[20] </args>
      <args> box[5] box[15] box[21] </args>
      <args> box[5] box[16] box[22] </args>
      <args> box[6..7] box[14] </args>
      <args> box[6] box[8] box[15] </args>
      <args> box[6] box[9] box[16] </args>
      <args> box[6] box[10] box[17] </args>
      <args> box[6] box[11] box[18] </args>
      <args> box[6] box[12] box[19] </args>
      <args> box[6] box[13] box[20] </args>
      <args> box[6] box[14] box[21] </args>
      <args> box[6] box[15] box[22] </args>
      <args> box[7..8] box[16] </args>
      <args> box[7] box[9] box[17] </args>
      <args> box[7] box[10] box[18] </args>
      <args> box[7] box[11] box[19] </args>
      <args> box[7] box[12] box[20] </args>
      <args> box[7] box[13] box[21] </args>
      <args> box[7] box[14] box[22] </args>
      <args> box[8..9] box[18] </args>
      <args> box[8] box[10] box[19] </args>
      <args> box[8] box[11] box[20] </args>
      <args> box[8] box[12] box[21] </args>
      <args> box[8] box[13] box[22] </args>
      <args> box[9..10] box[20] </args>
      <args> box[9] box[11] box[21] </args>
      <args> box[9] box[12] box[22] </args>
      <args> box[10..11] box[22] </args>
    </group>
  </constraints>
</instance>
